; PUSH cw_3 MLOAD PUSH cw_2 SWAP1 => PUSH cw_2 PUSH cw_3 MLOAD
(set-option :produce-proofs true)
; 
(set-info :status unknown)
(declare-fun storage_t ((_ BitVec 256) (_ BitVec 256) (_ BitVec 256) Int (_ BitVec 256)) (_ BitVec 256))
(declare-fun w_2 () (_ BitVec 256))
(declare-fun w_3 () (_ BitVec 256))
(declare-fun storage_s ((_ BitVec 256) (_ BitVec 256) (_ BitVec 256) Int (_ BitVec 256)) (_ BitVec 256))
(declare-fun exc_halt_t (Int) Bool)
(declare-fun exc_halt_s (Int) Bool)
(declare-fun stack_t ((_ BitVec 256) (_ BitVec 256) (_ BitVec 256) Int (_ BitVec 6)) (_ BitVec 256))
(declare-fun stack_s ((_ BitVec 256) (_ BitVec 256) (_ BitVec 256) Int (_ BitVec 6)) (_ BitVec 256))
(declare-fun sc_t (Int) (_ BitVec 6))
(declare-fun sc_s (Int) (_ BitVec 6))
(declare-fun used_gas_t ((_ BitVec 256) (_ BitVec 256) (_ BitVec 256) Int) Int)
(declare-fun used_gas_s ((_ BitVec 256) (_ BitVec 256) (_ BitVec 256) Int) Int)
(declare-fun f_MLOAD ((_ BitVec 256) (_ BitVec 256) (_ BitVec 256) (_ BitVec 256)) (_ BitVec 256))
(assert
 (exists ((x_MLOAD_0 (_ BitVec 256)) )(let (($x11198 (forall ((w (_ BitVec 256)) )(let ((?x9642 (storage_t w_3 w_2 x_MLOAD_0 3 w)))
 (let ((?x1761 (storage_s w_3 w_2 x_MLOAD_0 4 w)))
 (= ?x1761 ?x9642))))
 ))
 (let (($x3614 (exc_halt_t 3)))
 (let (($x7172 (exc_halt_s 4)))
 (let (($x10470 (= $x7172 $x3614)))
 (let (($x1643 (forall ((n (_ BitVec 6)) )(let ((?x2195 (stack_t w_3 w_2 x_MLOAD_0 3 n)))
 (let ((?x6915 (stack_s w_3 w_2 x_MLOAD_0 4 n)))
 (let (($x6627 (= ?x6915 ?x2195)))
 (or (bvsle (sc_t 3) n) $x6627)))))
 ))
 (let ((?x11304 (sc_t 3)))
 (let ((?x4305 (sc_s 4)))
 (let (($x9234 (= ?x4305 ?x11304)))
 (let ((?x5506 (used_gas_t w_3 w_2 x_MLOAD_0 0)))
 (let ((?x6859 (used_gas_s w_3 w_2 x_MLOAD_0 0)))
 (let (($x295 (= ?x6859 ?x5506)))
 (let (($x9150 (forall ((w (_ BitVec 256)) )(let ((?x2320 (storage_t w_3 w_2 x_MLOAD_0 0 w)))
 (let ((?x8238 (storage_s w_3 w_2 x_MLOAD_0 0 w)))
 (= ?x8238 ?x2320))))
 ))
 (let (($x56 (exc_halt_t 0)))
 (let (($x57 (exc_halt_s 0)))
 (let (($x58 (= $x57 $x56)))
 (let (($x5517 (forall ((n (_ BitVec 6)) )(let ((?x6460 (stack_t w_3 w_2 x_MLOAD_0 0 n)))
 (let ((?x286 (stack_s w_3 w_2 x_MLOAD_0 0 n)))
 (let (($x8382 (= ?x286 ?x6460)))
 (let ((?x63 (sc_t 0)))
 (let (($x7673 (bvsle ?x63 n)))
 (or $x7673 $x8382)))))))
 ))
 (let ((?x63 (sc_t 0)))
 (let ((?x72 (sc_s 0)))
 (let (($x73 (= ?x72 ?x63)))
 (let (($x6857 (= $x3614 (or (exc_halt_t 2) (not (bvsle (_ bv0 6) (bvadd (_ bv63 6) (sc_t 2))))))))
 (let (($x11179 (forall ((w (_ BitVec 256)) )(let ((?x2103 (storage_t w_3 w_2 x_MLOAD_0 2 w)))
 (let ((?x9642 (storage_t w_3 w_2 x_MLOAD_0 3 w)))
 (= ?x9642 ?x2103))))
 ))
 (let (($x1154 (forall ((n (_ BitVec 6)) )(let ((?x11556 (stack_t w_3 w_2 x_MLOAD_0 2 n)))
 (let ((?x2195 (stack_t w_3 w_2 x_MLOAD_0 3 n)))
 (or (bvsle (bvadd (_ bv63 6) (sc_t 2)) n) (= ?x2195 ?x11556)))))
 ))
 (let (($x5452 (= (used_gas_t w_3 w_2 x_MLOAD_0 3) (+ 3 (used_gas_t w_3 w_2 x_MLOAD_0 2)))))
 (let ((?x3544 (f_MLOAD w_3 w_2 x_MLOAD_0 (stack_t w_3 w_2 x_MLOAD_0 2 (bvadd (_ bv63 6) (sc_t 2))))))
 (let (($x8377 (exc_halt_t 1)))
 (let (($x2059 (or $x8377 (not (= ((_ extract 6 6) (bvadd (_ bv1 7) (concat (_ bv0 1) (sc_t 1)))) (_ bv0 1))))))
 (let (($x3470 (exc_halt_t 2)))
 (let (($x9449 (forall ((w (_ BitVec 256)) )(let ((?x10355 (storage_t w_3 w_2 x_MLOAD_0 1 w)))
 (let ((?x2103 (storage_t w_3 w_2 x_MLOAD_0 2 w)))
 (= ?x2103 ?x10355))))
 ))
 (let (($x3979 (forall ((n (_ BitVec 6)) )(let ((?x11742 (stack_t w_3 w_2 x_MLOAD_0 1 n)))
 (let ((?x11556 (stack_t w_3 w_2 x_MLOAD_0 2 n)))
 (or (bvsle (sc_t 1) n) (= ?x11556 ?x11742)))))
 ))
 (let ((?x7179 (used_gas_t w_3 w_2 x_MLOAD_0 2)))
 (let (($x4983 (= $x8377 (or $x56 (not (= ((_ extract 6 6) (bvadd (_ bv1 7) (concat (_ bv0 1) ?x63))) (_ bv0 1)))))))
 (let (($x11123 (forall ((w (_ BitVec 256)) )(let ((?x2320 (storage_t w_3 w_2 x_MLOAD_0 0 w)))
 (let ((?x10355 (storage_t w_3 w_2 x_MLOAD_0 1 w)))
 (= ?x10355 ?x2320))))
 ))
 (let (($x7063 (forall ((n (_ BitVec 6)) )(let ((?x6460 (stack_t w_3 w_2 x_MLOAD_0 0 n)))
 (let ((?x11742 (stack_t w_3 w_2 x_MLOAD_0 1 n)))
 (let ((?x63 (sc_t 0)))
 (let (($x7673 (bvsle ?x63 n)))
 (or $x7673 (= ?x11742 ?x6460)))))))
 ))
 (let (($x8045 (= $x7172 (or (exc_halt_s 3) (not (bvsle (_ bv0 6) (bvadd (_ bv62 6) (sc_s 3))))))))
 (let (($x5678 (forall ((w (_ BitVec 256)) )(let ((?x4175 (storage_s w_3 w_2 x_MLOAD_0 3 w)))
 (let ((?x1761 (storage_s w_3 w_2 x_MLOAD_0 4 w)))
 (= ?x1761 ?x4175))))
 ))
 (let (($x4377 (forall ((n (_ BitVec 6)) )(let ((?x11682 (stack_s w_3 w_2 x_MLOAD_0 3 n)))
 (let ((?x6915 (stack_s w_3 w_2 x_MLOAD_0 4 n)))
 (or (bvsle (bvadd (_ bv62 6) (sc_s 3)) n) (= ?x6915 ?x11682)))))
 ))
 (let (($x10308 (= (used_gas_s w_3 w_2 x_MLOAD_0 4) (+ 3 (used_gas_s w_3 w_2 x_MLOAD_0 3)))))
 (let (($x7318 (= (stack_s w_3 w_2 x_MLOAD_0 4 (bvadd (_ bv62 6) ?x4305)) (stack_s w_3 w_2 x_MLOAD_0 3 (bvadd (_ bv63 6) (sc_s 3))))))
 (let (($x10541 (= (stack_s w_3 w_2 x_MLOAD_0 4 (bvadd (_ bv63 6) ?x4305)) (stack_s w_3 w_2 x_MLOAD_0 3 (bvadd (_ bv62 6) (sc_s 3))))))
 (let (($x247 (exc_halt_s 2)))
 (let (($x16 (or $x247 (not (= ((_ extract 6 6) (bvadd (_ bv1 7) (concat (_ bv0 1) (sc_s 2)))) (_ bv0 1))))))
 (let (($x292 (exc_halt_s 3)))
 (let (($x10973 (forall ((w (_ BitVec 256)) )(let ((?x7991 (storage_s w_3 w_2 x_MLOAD_0 2 w)))
 (let ((?x4175 (storage_s w_3 w_2 x_MLOAD_0 3 w)))
 (= ?x4175 ?x7991))))
 ))
 (let (($x577 (forall ((n (_ BitVec 6)) )(let ((?x896 (stack_s w_3 w_2 x_MLOAD_0 2 n)))
 (let ((?x11682 (stack_s w_3 w_2 x_MLOAD_0 3 n)))
 (or (bvsle (sc_s 2) n) (= ?x11682 ?x896)))))
 ))
 (let ((?x274 (used_gas_s w_3 w_2 x_MLOAD_0 3)))
 (let (($x8388 (= $x247 (or (exc_halt_s 1) (not (bvsle (_ bv0 6) (bvadd (_ bv63 6) (sc_s 1))))))))
 (let (($x373 (forall ((w (_ BitVec 256)) )(let ((?x9560 (storage_s w_3 w_2 x_MLOAD_0 1 w)))
 (let ((?x7991 (storage_s w_3 w_2 x_MLOAD_0 2 w)))
 (= ?x7991 ?x9560))))
 ))
 (let (($x1980 (forall ((n (_ BitVec 6)) )(let ((?x1789 (stack_s w_3 w_2 x_MLOAD_0 1 n)))
 (let ((?x896 (stack_s w_3 w_2 x_MLOAD_0 2 n)))
 (or (bvsle (bvadd (_ bv63 6) (sc_s 1)) n) (= ?x896 ?x1789)))))
 ))
 (let ((?x2995 (used_gas_s w_3 w_2 x_MLOAD_0 2)))
 (let ((?x11096 (f_MLOAD w_3 w_2 x_MLOAD_0 (stack_s w_3 w_2 x_MLOAD_0 1 (bvadd (_ bv63 6) (sc_s 1))))))
 (let (($x189 (exc_halt_s 1)))
 (let (($x10804 (= $x189 (or $x57 (not (= ((_ extract 6 6) (bvadd (_ bv1 7) (concat (_ bv0 1) ?x72))) (_ bv0 1)))))))
 (let (($x10983 (forall ((w (_ BitVec 256)) )(let ((?x8238 (storage_s w_3 w_2 x_MLOAD_0 0 w)))
 (let ((?x9560 (storage_s w_3 w_2 x_MLOAD_0 1 w)))
 (= ?x9560 ?x8238))))
 ))
 (let (($x4607 (forall ((n (_ BitVec 6)) )(let ((?x286 (stack_s w_3 w_2 x_MLOAD_0 0 n)))
 (let ((?x1789 (stack_s w_3 w_2 x_MLOAD_0 1 n)))
 (or (bvsle (sc_s 0) n) (= ?x1789 ?x286)))))
 ))
 (let (($x10902 (forall ((w0 (_ BitVec 256)) )(let ((?x10361 (ite (= (stack_s w_3 w_2 x_MLOAD_0 1 (bvadd (_ bv63 6) (sc_s 1))) w0) x_MLOAD_0 (_ bv0 256))))
 (let ((?x9583 (f_MLOAD w_3 w_2 x_MLOAD_0 w0)))
 (= ?x9583 ?x10361))))
 ))
 (let (($x3530 (forall ((w (_ BitVec 256)) )(let ((?x8238 (storage_s w_3 w_2 x_MLOAD_0 0 w)))
 (= ?x8238 (_ bv0 256))))
 ))
 (let (($x2762 (= ?x6859 0)))
 (let (($x8325 (= ?x72 (_ bv0 6))))
 (and $x8325 (not $x57) $x2762 $x3530 $x10902 (= (stack_s w_3 w_2 x_MLOAD_0 1 ?x72) w_3) (= (used_gas_s w_3 w_2 x_MLOAD_0 1) (+ 3 ?x6859)) (= (sc_s 1) (bvadd (_ bv1 6) ?x72)) $x4607 $x10983 $x10804 (= (stack_s w_3 w_2 x_MLOAD_0 2 (bvadd (_ bv63 6) (sc_s 2))) ?x11096) (= ?x2995 (+ 3 (used_gas_s w_3 w_2 x_MLOAD_0 1))) (= (sc_s 2) (sc_s 1)) $x1980 $x373 $x8388 (= (stack_s w_3 w_2 x_MLOAD_0 3 (sc_s 2)) w_2) (= ?x274 (+ 3 ?x2995)) (= (sc_s 3) (bvadd (_ bv1 6) (sc_s 2))) $x577 $x10973 (= $x292 $x16) $x10541 $x7318 $x10308 (= ?x4305 (sc_s 3)) $x4377 $x5678 $x8045 (= (stack_t w_3 w_2 x_MLOAD_0 1 ?x63) w_2) (= (used_gas_t w_3 w_2 x_MLOAD_0 1) (+ 3 ?x5506)) (= (sc_t 1) (bvadd (_ bv1 6) ?x63)) $x7063 $x11123 $x4983 (= (stack_t w_3 w_2 x_MLOAD_0 2 (sc_t 1)) w_3) (= ?x7179 (+ 3 (used_gas_t w_3 w_2 x_MLOAD_0 1))) (= (sc_t 2) (bvadd (_ bv1 6) (sc_t 1))) $x3979 $x9449 (= $x3470 $x2059) (= (stack_t w_3 w_2 x_MLOAD_0 3 (bvadd (_ bv63 6) ?x11304)) ?x3544) $x5452 (= ?x11304 (sc_t 2)) $x1154 $x11179 $x6857 $x73 $x5517 $x58 $x9150 $x295 (not (and $x9234 $x1643 $x10470 $x11198))))))))))))))))))))))))))))))))))))))))))))))))))))))))))))))
 )
(check-sat)
(get-proof)
